NAME: n60q40C.tsp, 60 nodes, semilla 222
COMMENT: Problema aleatorio de norma euclidea
DIMENSION: 60
CAPACITY: 40
EDGE_WEIGHT_TYPE: EUC_2D
NODE_COORD_SECTION
1   0.0000   0.0000
2 302.0000 264.0000
3 -191.0000 -343.0000
4  64.0000 431.0000
5 -477.0000 -298.0000
6 -270.0000 -492.0000
7 -388.0000 287.0000
8  50.0000 274.0000
9 -378.0000 498.0000
10 186.0000  32.0000
11 -455.0000 -299.0000
12 -480.0000 -417.0000
13 -216.0000 112.0000
14  41.0000 -213.0000
15  95.0000 -480.0000
16 -488.0000 208.0000
17 -376.0000 -203.0000
18  97.0000 -161.0000
19 -370.0000 325.0000
20 -77.0000 -263.0000
21 -479.0000 -310.0000
22 -115.0000 -237.0000
23  84.0000 -246.0000
24 -240.0000 242.0000
25 147.0000 -289.0000
26 -387.0000 273.0000
27 417.0000  54.0000
28   9.0000 -111.0000
29 -367.0000 243.0000
30 198.0000 -351.0000
31 -205.0000 205.0000
32 -244.0000 -58.0000
33 -15.0000 157.0000
34 -136.0000 -284.0000
35 -222.0000  61.0000
36 483.0000 333.0000
37 -249.0000 -81.0000
38 134.0000 -230.0000
39  85.0000 -261.0000
40   4.0000  24.0000
41 -446.0000 333.0000
42  90.0000  52.0000
43 275.0000 414.0000
44 -206.0000 371.0000
45 181.0000 -382.0000
46 -146.0000 -45.0000
47 475.0000 -405.0000
48 -189.0000 -394.0000
49 384.0000 500.0000
50 -493.0000  -8.0000
51 -51.0000 -280.0000
52 -448.0000  94.0000
53 -379.0000 -453.0000
54 462.0000  33.0000
55 -450.0000 -215.0000
56 -392.0000 380.0000
57 283.0000 158.0000
58 -362.0000 402.0000
59 184.0000 -331.0000
60 -467.0000  28.0000
DISPLAY_DATA_SECTION:
 1  250  250
 2  401  382
 3  154   78
 4  282  465
 5   11  101
 6  115    4
 7   56  393
 8  275  387
 9   61  499
10  343  266
11   22  100
12   10   41
13  142  306
14  270  143
15  297   10
16    6  354
17   62  148
18  298  169
19   65  412
20  211  118
21   10   95
22  192  131
23  292  127
24  130  371
25  323  105
26   56  386
27  458  277
28  254  194
29   66  371
30  349   74
31  147  352
32  128  221
33  242  328
34  182  108
35  139  280
36  491  416
37  125  209
38  317  135
39  292  119
40  252  262
41   27  416
42  295  276
43  387  457
44  147  435
45  340   59
46  177  227
47  487   47
48  155   53
49  442  500
50    3  246
51  224  110
52   26  297
53   60   23
54  481  266
55   25  142
56   54  440
57  391  329
58   69  451
59  342   84
60   16  264
DEMAND_SECTION
1 -5
2 3
3 5
4 -2
5 9
6 -4
7 -1
8 -7
9 -6
10 -8
11 -8
12 -6
13 -6
14 10
15 -2
16 0
17 -7
18 9
19 4
20 4
21 -4
22 8
23 -5
24 -2
25 6
26 -6
27 0
28 5
29 0
30 -3
31 1
32 3
33 -1
34 -2
35 3
36 -2
37 -7
38 4
39 9
40 6
41 -1
42 6
43 -7
44 6
45 -3
46 7
47 3
48 -2
49 -2
50 -3
51 -3
52 10
53 10
54 8
55 -7
56 -1
57 -3
58 -4
59 -8
60 -1
EOF